1
279
2
278
277
268
267
266
265
264
263
262
261
260
259
258
257
256
255
248
247
249
250
229
228
227
226
225
224
223
222
220
221
218
219
216
217
214
215
212
213
210
211
205
204
203
202
201
200
199
198
197
192
191
190
189
188
187
185
186
184
183
182
181
173
116
43
56
55
54
53
52
51
50
49
48
47
46
45
44
33
32
34
35
36
37
38
39
40
41
42
59
60
117
61
62
63
64
65
58
57
67
68
66
69
70
71
72
73
74
75
76
77
78
79
80
81
82
83
84
85
115
114
113
112
86
87
111
110
109
107
108
88
89
90
91
97
92
93
94
95
96
98
99
100
101
102
103
104
105
106
172
168
167
166
165
164
163
162
161
160
174
159
158
157
156
118
119
120
121
122
123
124
29
30
31
28
27
26
25
21
24
22
23
132
16
17
18
19
20
127
126
125
131
130
129
128
153
154
152
155
151
150
176
175
180
179
178
177
149
148
147
146
145
144
143
142
141
140
139
138
137
136
135
134
133
269
194
195
196
193
170
171
169
14
13
12
11
10
9
8
7
6
5
4
3
276
275
274
273
272
271
270
15
206
209
208
207
252
253
254
251
231
232
233
234
235
236
237
230
244
243
240
239
238
245
246
242
241
0
